; benchmark generated from python API
(set-info :status unknown)
(declare-fun strlen_72_64 () (_ BitVec 64))
(declare-fun args_0_8 () (_ BitVec 8))
(declare-fun strlen_74_64 () (_ BitVec 64))
(declare-fun args_1_8 () (_ BitVec 8))
(declare-fun strlen_78_64 () (_ BitVec 64))
(declare-fun args_2_8 () (_ BitVec 8))
(declare-fun sigaction_oldact_174_1216 () (_ BitVec 1216))
(declare-fun sigaction_oldact_180_1216 () (_ BitVec 1216))
(declare-fun sigaction_oldact_193_1216 () (_ BitVec 1216))
(declare-fun sigaction_oldact_213_1216 () (_ BitVec 1216))
(declare-fun sigaction_oldact_251_1216 () (_ BitVec 1216))
(declare-fun sigaction_oldact_326_1216 () (_ BitVec 1216))
(declare-fun sigaction_oldact_468_1216 () (_ BitVec 1216))
(declare-fun sigaction_oldact_744_1216 () (_ BitVec 1216))
(declare-fun sigaction_oldact_1338_1216 () (_ BitVec 1216))
(assert
 (= (_ bv1 64) strlen_72_64))
(assert
 (let (($x69 (= (_ bv0 8) args_0_8)))
 (not $x69)))
(assert
 (let (($x190 (= (_ bv1 64) strlen_74_64)))
 (not $x190)))
(assert
 (let ((?x365 (bvadd (_ bv576460752303357826 64) strlen_74_64)))
 (let (($x347 (= (_ bv0 8) args_1_8)))
 (let ((?x355 (ite $x347 (_ bv576460752303357826 64) (_ bv576460752303357827 64))))
 (= ?x355 ?x365)))))
(assert
 (let (($x369 (= (_ bv0 8) args_2_8)))
 (let ((?x373 (ite $x369 (_ bv576460752303357828 64) (_ bv576460752303357829 64))))
 (let ((?x375 (bvsub ?x373 (_ bv576460752303357828 64))))
 (= ?x375 strlen_78_64)))))
(assert
 (let ((?x1768 ((_ extract 127 120) sigaction_oldact_174_1216)))
 (let ((?x2294 (bvand ?x1768 (_ bv4 8))))
 (= (_ bv0 8) ?x2294))))
(assert
 (let ((?x2475 ((_ extract 127 120) sigaction_oldact_180_1216)))
 (let ((?x2558 (bvand ?x2475 (_ bv4 8))))
 (= (_ bv0 8) ?x2558))))
(assert
 (let ((?x3163 ((_ extract 127 120) sigaction_oldact_193_1216)))
 (let ((?x3169 (bvand ?x3163 (_ bv4 8))))
 (= (_ bv0 8) ?x3169))))
(assert
 (let ((?x4444 ((_ extract 127 120) sigaction_oldact_213_1216)))
 (let ((?x4469 (bvand ?x4444 (_ bv4 8))))
 (= (_ bv0 8) ?x4469))))
(assert
 (let ((?x7027 ((_ extract 127 120) sigaction_oldact_251_1216)))
 (let ((?x7052 (bvand ?x7027 (_ bv4 8))))
 (= (_ bv0 8) ?x7052))))
(assert
 (let ((?x12052 ((_ extract 127 120) sigaction_oldact_326_1216)))
 (let ((?x12072 (bvand ?x12052 (_ bv4 8))))
 (= (_ bv0 8) ?x12072))))
(assert
 (let ((?x22718 ((_ extract 127 120) sigaction_oldact_468_1216)))
 (let ((?x22735 (bvand ?x22718 (_ bv4 8))))
 (= (_ bv0 8) ?x22735))))
(assert
 (let ((?x42372 ((_ extract 127 120) sigaction_oldact_744_1216)))
 (let ((?x42389 (bvand ?x42372 (_ bv4 8))))
 (and (distinct (_ bv0 8) ?x42389) true))))
(assert
 (let ((?x77420 ((_ extract 127 120) sigaction_oldact_1338_1216)))
 (let ((?x77441 (bvand ?x77420 (_ bv4 8))))
 (and (distinct (_ bv0 8) ?x77441) true))))
(maximize sigaction_oldact_744_1216)
(maximize args_0_8)
(maximize sigaction_oldact_251_1216)
(maximize strlen_72_64)
(maximize sigaction_oldact_1338_1216)
(minimize args_2_8)
(maximize sigaction_oldact_468_1216)
(minimize sigaction_oldact_251_1216)
(maximize args_1_8)
(maximize sigaction_oldact_174_1216)
(minimize sigaction_oldact_326_1216)
(maximize sigaction_oldact_213_1216)
(minimize args_1_8)
(minimize sigaction_oldact_213_1216)
(minimize sigaction_oldact_174_1216)
(minimize strlen_78_64)
(minimize strlen_72_64)
(minimize sigaction_oldact_1338_1216)
(maximize sigaction_oldact_193_1216)
(minimize strlen_74_64)
(minimize args_0_8)
(maximize strlen_78_64)
(minimize sigaction_oldact_468_1216)
(maximize args_2_8)
(minimize sigaction_oldact_744_1216)
(minimize sigaction_oldact_180_1216)
(maximize strlen_74_64)
(minimize sigaction_oldact_193_1216)
(maximize sigaction_oldact_326_1216)
(maximize sigaction_oldact_180_1216)
(check-sat)
(get-objectives)
